NAME  Ti(Cl)(O)
ROWS
 N  R0
 L  R1
 L  R2
 L  R3
 L  R4
 L  R5
 L  R6
 L  R7
 L  R8
 L  R9
 L  R10
 L  R11
 L  R12
 L  R13
 L  R14
 L  R15
 L  R16
 L  R17
 L  R18
 L  R19
 L  R20
 L  R21
 L  R22
 L  R23
 L  R24
 L  R25
 L  R26
 L  R27
 L  R28
 L  R29
 L  R30
 L  R31
 L  R32
 L  R33
 L  R34
 L  R35
 L  R36
 L  R37
 L  R38
 L  R39
 L  R40
 L  R41
 L  R42
 L  R43
 L  R44
 E  R45
 E  R46
 E  R47
 E  R48
 E  R49
 G  main
COLUMNS
    absV[19]   R0        90.000000000
    absV[19]   R29       -1.000000000
    absV[19]   R30       -1.000000000
    v[1]       R31       1.0000000000
    v[1]       R32       -1.000000000
    v[1]       R45       1.0000000000
    v[1]       R46       3.0000000000
    v[1]       R48       72.000000000
    v[1]       R49       1.0000000000
    absV[7]    R0        82.000000000
    absV[7]    R17       -1.000000000
    absV[7]    R18       -1.000000000
    absV[5]    R0        50.000000000
    absV[5]    R1        -1.000000000
    absV[5]    R2        -1.000000000
    absV[9]    R0        50.000000000
    absV[9]    R7        -1.000000000
    absV[9]    R8        -1.000000000
    absV[0]    R0        47.000000000
    absV[0]    R37       -1.000000000
    absV[0]    R38       -1.000000000
    absV[20]   R0        66.000000000
    absV[20]   R5        -1.000000000
    absV[20]   R6        -1.000000000
    v[11]      R41       1.0000000000
    v[11]      R42       -1.000000000
    v[11]      R47       2.0000000000
    v[11]      R48       14.000000000
    v[11]      R49       2.0000000000
    v[21]      R9        1.0000000000
    v[21]      R10       -1.000000000
    v[21]      R46       1.0000000000
    v[21]      R47       2.0000000000
    v[21]      R48       32.000000000
    v[21]      R49       1.0000000000
    absV[4]    R0        30.000000000
    absV[4]    R35       -1.000000000
    absV[4]    R36       -1.000000000
    absV[2]    R0        42.000000000
    absV[2]    R39       -1.000000000
    absV[2]    R40       -1.000000000
    v[19]      R29       1.0000000000
    v[19]      R30       -1.000000000
    v[19]      R46       2.0000000000
    v[19]      R47       7.0000000000
    v[19]      R48       90.000000000
    absV[16]   R0        49.000000000
    absV[16]   R43       -1.000000000
    absV[16]   R44       -1.000000000
    v[3]       R21       1.0000000000
    v[3]       R22       -1.000000000
    v[3]       R46       2.0000000000
    v[3]       R48       34.000000000
    v[5]       R1        1.0000000000
    v[5]       R2        -1.000000000
    v[5]       R46       2.0000000000
    v[5]       R47       2.0000000000
    v[5]       R48       50.000000000
    v[17]      R15       1.0000000000
    v[17]      R16       -1.000000000
    v[17]      R46       2.0000000000
    v[17]      R47       3.0000000000
    v[17]      R48       58.000000000
    absV[14]   R0        90.000000000
    absV[14]   R13       -1.000000000
    absV[14]   R14       -1.000000000
    v[7]       R17       1.0000000000
    v[7]       R18       -1.000000000
    v[7]       R46       2.0000000000
    v[7]       R47       6.0000000000
    v[7]       R48       82.000000000
    v[15]      R25       1.0000000000
    v[15]      R26       -1.000000000
    v[15]      R46       1.0000000000
    v[15]      R47       2.0000000000
    v[15]      R48       32.000000000
    v[15]      R49       1.0000000000
    absV[12]   R0        25.000000000
    absV[12]   R19       -1.000000000
    absV[12]   R20       -1.000000000
    v[9]       R7        1.0000000000
    v[9]       R8        -1.000000000
    v[9]       R46       2.0000000000
    v[9]       R47       2.0000000000
    v[9]       R48       50.000000000
    v[13]      R11       1.0000000000
    v[13]      R12       -1.000000000
    v[13]      R46       2.0000000000
    v[13]      R47       1.0000000000
    v[13]      R48       42.000000000
    absV[10]   R0        74.000000000
    absV[10]   R3        -1.000000000
    absV[10]   R4        -1.000000000
    v[0]       R37       1.0000000000
    v[0]       R38       -1.000000000
    v[0]       R45       1.0000000000
    v[0]       R46       1.0000000000
    v[0]       R47       1.0000000000
    v[0]       R48       46.000000000
    v[0]       R49       1.0000000000
    v[0]       main      1.0000000000
    v[2]       R39       1.0000000000
    v[2]       R40       -1.000000000
    v[2]       R46       2.0000000000
    v[2]       R47       1.0000000000
    v[2]       R48       42.000000000
    absV[18]   R0        41.000000000
    absV[18]   R23       -1.000000000
    absV[18]   R24       -1.000000000
    absV[8]    R0        56.000000000
    absV[8]    R27       -1.000000000
    absV[8]    R28       -1.000000000
    absV[6]    R0        50.000000000
    absV[6]    R33       -1.000000000
    absV[6]    R34       -1.000000000
    v[10]      R3        1.0000000000
    v[10]      R4        -1.000000000
    v[10]      R46       2.0000000000
    v[10]      R47       5.0000000000
    v[10]      R48       74.000000000
    v[20]      R5        1.0000000000
    v[20]      R6        -1.000000000
    v[20]      R46       2.0000000000
    v[20]      R47       4.0000000000
    v[20]      R48       66.000000000
    absV[3]    R0        34.000000000
    absV[3]    R21       -1.000000000
    absV[3]    R22       -1.000000000
    absV[1]    R0        73.000000000
    absV[1]    R31       -1.000000000
    absV[1]    R32       -1.000000000
    absV[17]   R0        58.000000000
    absV[17]   R15       -1.000000000
    absV[17]   R16       -1.000000000
    v[18]      R23       1.0000000000
    v[18]      R24       -1.000000000
    v[18]      R46       1.0000000000
    v[18]      R47       3.0000000000
    v[18]      R48       40.000000000
    v[18]      R49       1.0000000000
    v[4]       R35       1.0000000000
    v[4]       R36       -1.000000000
    v[4]       R45       1.0000000000
    v[4]       R47       1.0000000000
    v[4]       R48       28.000000000
    v[4]       R49       2.0000000000
    absV[15]   R0        33.000000000
    absV[15]   R25       -1.000000000
    absV[15]   R26       -1.000000000
    v[6]       R33       1.0000000000
    v[6]       R34       -1.000000000
    v[6]       R46       2.0000000000
    v[6]       R47       2.0000000000
    v[6]       R48       50.000000000
    v[16]      R43       1.0000000000
    v[16]      R44       -1.000000000
    v[16]      R46       1.0000000000
    v[16]      R47       4.0000000000
    v[16]      R48       48.000000000
    v[16]      R49       1.0000000000
    absV[13]   R0        42.000000000
    absV[13]   R11       -1.000000000
    absV[13]   R12       -1.000000000
    v[14]      R13       1.0000000000
    v[14]      R14       -1.000000000
    v[14]      R45       1.0000000000
    v[14]      R46       4.0000000000
    v[14]      R48       90.000000000
    v[8]       R27       1.0000000000
    v[8]       R28       -1.000000000
    v[8]       R45       1.0000000000
    v[8]       R46       2.0000000000
    v[8]       R48       54.000000000
    v[8]       R49       2.0000000000
    absV[11]   R0        16.000000000
    absV[11]   R41       -1.000000000
    absV[11]   R42       -1.000000000
    absV[21]   R0        33.000000000
    absV[21]   R9        -1.000000000
    absV[21]   R10       -1.000000000
    v[12]      R19       1.0000000000
    v[12]      R20       -1.000000000
    v[12]      R46       1.0000000000
    v[12]      R47       1.0000000000
    v[12]      R48       24.000000000
    v[12]      R49       1.0000000000
RHS
    RHS       main      1.0000000000
BOUNDS
 FR BND       absV[5]
 FR BND       v[5]
 FR BND       absV[10]
 FR BND       v[10]
 FR BND       absV[20]
 FR BND       v[20]
 FR BND       absV[9]
 FR BND       v[9]
 FR BND       absV[21]
 FR BND       v[21]
 FR BND       absV[13]
 FR BND       v[13]
 FR BND       absV[14]
 FR BND       v[14]
 FR BND       absV[17]
 FR BND       v[17]
 FR BND       absV[7]
 FR BND       v[7]
 FR BND       absV[12]
 FR BND       v[12]
 FR BND       absV[3]
 FR BND       v[3]
 FR BND       absV[18]
 FR BND       v[18]
 FR BND       absV[15]
 FR BND       v[15]
 FR BND       absV[8]
 FR BND       v[8]
 FR BND       absV[19]
 FR BND       v[19]
 FR BND       absV[1]
 FR BND       v[1]
 FR BND       absV[6]
 FR BND       v[6]
 FR BND       absV[4]
 FR BND       v[4]
 FR BND       absV[0]
 FR BND       v[0]
 FR BND       absV[2]
 FR BND       v[2]
 FR BND       absV[11]
 FR BND       v[11]
 FR BND       absV[16]
 FR BND       v[16]
ENDATA